G = 50.0;
costo = [100.0, 50.0, 80.0];
capacidad = [300.0, 200.0, 600.0];
num_clientes = 2;
num_dias = 7;
num_plantas = 3;
pago = [200.0, 100.0];
demanda = [|100.0, 50.0, 70.0, 200.0, 50.0, 250.0, 100.0
|200.0, 80.0, 50.0, 100.0, 100.0, 200.0, 150.0
        |];
